unsat
(:added-eqs                   5475
 :arith-eq-adapter            71
 :arith-bound-propagations-lp 404
 :arith-branch                2014
 :arith-conflicts             2483
 :arith-cube-calls            953
 :arith-diseq                 2175
 :arith-fixed-eqs             2111
 :arith-gcd-calls             3847
 :arith-gcd-conflict          17
 :arith-gomory-cuts           2844
 :arith-hnf-calls             10
 :arith-lower                 79814
 :arith-make-feasible         21126
 :arith-max-columns           98
 :arith-max-rows              53
 :arith-nla-propagate-bounds  4
 :arith-offset-eqs            691
 :arith-patches               3830
 :arith-patches-success       3
 :arith-upper                 82449
 :binary-propagations         105169
 :conflicts                   2496
 :decisions                   11402
 :del-clause                  6717
 :final-checks                3848
 :max-memory                  21.75
 :memory                      17.79
 :minimized-lits              150
 :mk-bool-var                 6100
 :mk-clause                   6795
 :mk-clause-binary            4221
 :num-allocs                  1134019611
 :num-checks                  1
 :propagations                151955
 :restarts                    20
 :rlimit-count                1021654
 :time                        1.74
 :total-time                  1.74)
